n_res = 4;
rc = [ 16, 29, 18, 22 ];
n_tasks = 30;
d = [ 9, 7, 1, 1, 10, 4, 5, 10, 6, 9, 7, 6, 8, 6, 6, 7, 9, 5, 6, 8, 8, 3, 6, 7, 2, 5, 8, 10, 2, 2 ];
rr = [| 16, 16, 16, 16, 16, 16, 16, 16, 16, 16, 16, 16, 16, 16, 16, 16, 16, 16, 16, 16, 16, 16, 16, 16, 16, 16, 16, 16, 16, 16
      | 29, 29, 29, 29, 29, 29, 29, 29, 29, 29, 29, 29, 29, 29, 29, 29, 29, 29, 29, 29, 29, 29, 29, 29, 29, 29, 29, 29, 29, 29
      | 18, 18, 18, 18, 18, 18, 18, 18, 18, 18, 18, 18, 18, 18, 18, 18, 18, 18, 18, 18, 18, 18, 18, 18, 18, 18, 18, 18, 18, 18
      | 22, 22, 22, 22, 22, 22, 22, 22, 22, 22, 22, 22, 22, 22, 22, 22, 22, 22, 22, 22, 22, 22, 22, 22, 22, 22, 22, 22, 22, 22|];
suc = [ { 10, 23, 26 },
       { 5, 7, 8 },
       { 4, 9, 13 },
       { 5, 6, 10 },
       { 14, 20, 23 },
       { 11, 17, 18 },
       { 14, 22, 23 },
       { 10, 11, 15 },
       { 15, 24, 30 },
       { 16, 17, 19 },
       { 12, 14, 27 },
       { 20, 21, 26 },
       { 15, 18, 19 },
       { 19, 25, 26 },
       { 22, 25 },
       { 18, 24, 28 },
       { 30 },
       { 20, 21, 27 },
       { 21 },
       { 22 },
       { 30 },
       { 29 },
       { 24, 27, 28 },
       { 25 },
       { 29 },
       { 28 },
       { 29 },
       {  },
       {  },
       {  } ];
